123
0 33 65 109 22 60 87 112 67 117 
32 85 73 104 77 20 38 90 81 100 
99 6 43 114 115 8 51 88 70 108 
48 15 122 120 93 37 97 98 103 39 
95 75 116 91 56 25 35 59 111 118 
83 110 23 18 92 106 80 72 28 96 
7 46 5 40 52 14 34 1 63 61 
57 69 113 16 107 89 21 44 55 49 
76 27 13 68 17 4 41 79 2 105 
102 84 11 30 26 58 9 24 119 50 
47 31 36 82 66 10 74 78 101 45 
62 42 86 3 94 71 53 29 19 121 
54 64 12 
